50
    39    17    46    94     5    44    41    85    18    87    21    69    80    56    56    85    59    52    35    19    89    65    63    93    69    77    59    70    63    58    59    57     4    73    13    99    86    74    87    81    71     5    64    30    88   100    42    14    28    85
     4     8     6     7     3     4     4     4     1     8     1     3    10    10     1     5     4    10     3     2     7     2     2    10     2     9     7     6     1    10     2    10     5     3     4     4     9     1     8     1     2     7     1     7     6     7     4     2     3     9
   278   780   399   372   596   193  1004   370   874  1212   692  1026  1121   814  1039   235  1257  1086   644   977     0   342  1224   281   740   608   766     0  1250   464  1344  1267   633   796   549   570   455  1091  1024    23   788    24   182   328   702   358     0     0  1328   922
